52
Si2 H26 C24
C -4.004944 -0.009446 -0.000090
C -2.810461 -0.008438 -0.000201
C -1.390047 -0.004587 -0.000134
C -0.706702 1.203022 -0.000030
C -0.698813 -1.207656 -0.000192
C -1.390651 2.441911 0.000032
C 0.698813 1.207659 0.000020
C 0.706701 -1.203019 -0.000142
C -1.374486 -2.451026 -0.000301
H -2.463001 2.430161 -0.000002
C -0.716776 3.597715 0.000132
C 1.390047 0.004589 -0.000033
C 1.374485 2.451030 0.000125
C 1.390651 -2.441908 -0.000209
C -0.693060 -3.602370 -0.000360
H -2.446817 -2.446004 -0.000336
C 0.693058 3.602374 0.000179
C 2.810462 0.008436 0.000025
H 2.446815 2.446009 0.000159
H 2.463001 -2.430158 -0.000178
C 0.716774 -3.597711 -0.000314
H -1.219523 -4.537610 -0.000443
H 1.219521 4.537615 0.000257
C 4.004945 0.009437 0.000074
H -1.249473 4.529420 0.000179
H 1.249471 -4.529417 -0.000366
Si -5.842888 -0.003101 0.000065
C -6.424337 -0.877011 -1.524122
C -6.406835 1.759842 0.002384
C -6.424077 -0.880943 1.522090
Si 5.842889 0.003097 0.000119
C 6.406849 -1.759840 -0.003003
C 6.424165 0.876262 1.524799
C 6.424237 0.881684 -1.521417
H 6.045185 -2.283608 0.871602
H 7.487842 -1.815533 -0.003106
H 6.045167 -2.280511 -0.879448
H 6.058854 0.383341 2.415489
H 6.073462 1.899276 1.543271
H 7.505642 0.891912 1.568240
H -6.059157 -0.384509 -2.415098
H -7.505819 -0.892711 -1.567412
H -6.073610 -1.900025 -1.542147
H -6.073421 -1.904026 1.537377
H -7.505552 -0.896684 1.565562
H -6.058681 -0.390786 2.414270
H -6.045228 2.283188 -0.872498
H -6.045087 2.280930 0.878554
H -7.487828 1.815545 0.002538
H 6.058954 0.391946 -2.413873
H 7.505716 0.897469 -1.564757
H 6.073563 1.904767 -1.536256